
Gurobi 8.1.1 (win64) logging started 11/28/19 11:00:59

Changed value of parameter LogFile to logs/drand/rlt/drand-07-075-2.log
   Prev: gurobi.log  Default: 
Changed value of parameter LogToConsole to 0
   Prev: 1  Min: 0  Max: 1  Default: 1
Changed value of parameter TimeLimit to 3600.0
   Prev: 1e+100  Min: 0.0  Max: 1e+100  Default: 1e+100
Optimize a model with 97927 rows, 32896 columns and 230017 nonzeros
Variable types: 0 continuous, 32896 integer (256 binary)
Coefficient statistics:
  Matrix range     [1e+00, 1e+00]
  Objective range  [1e+00, 1e+00]
  Bounds range     [1e+00, 1e+00]
  RHS range        [1e+00, 1e+00]
Presolve time: 0.91s
Presolved: 97927 rows, 32896 columns, 230017 nonzeros
Variable types: 0 continuous, 32896 integer (32896 binary)
Found heuristic solution: objective 8.0000000
Found heuristic solution: objective 7.0000000

Root simplex log...

Iteration    Objective       Primal Inf.    Dual Inf.      Time
    4266    1.3236361e+00   1.106784e-02   0.000000e+00      5s
    4380    1.3236627e+00   0.000000e+00   0.000000e+00      5s

Root relaxation: objective 1.323663e+00, 4380 iterations, 3.92 seconds

    Nodes    |    Current Node    |     Objective Bounds      |     Work
 Expl Unexpl |  Obj  Depth IntInf | Incumbent    BestBd   Gap | It/Node Time

     0     0    1.32366    0 1692    7.00000    1.32366  81.1%     -    7s
     0     0    1.61790    0  882    7.00000    1.61790  76.9%     -   12s
H    0     0                       6.0000000    1.61790  73.0%     -   18s
     0     0    1.68905    0 1500    6.00000    1.68905  71.8%     -   23s
     0     0    1.71776    0 1295    6.00000    1.71776  71.4%     -   29s
     0     0    1.74227    0 1417    6.00000    1.74227  71.0%     -   31s
     0     0    1.74629    0 1410    6.00000    1.74629  70.9%     -   50s
     0     0    1.75206    0 1473    6.00000    1.75206  70.8%     -   52s
     0     0    1.75206    0 1453    6.00000    1.75206  70.8%     -   58s
     0     0    1.75868    0 1291    6.00000    1.75868  70.7%     -   61s
     0     0    1.75887    0 1233    6.00000    1.75887  70.7%     -   68s
     0     0    1.76576    0 1247    6.00000    1.76576  70.6%     -   71s
     0     0    1.76597    0 1246    6.00000    1.76597  70.6%     -   82s
     0     0    1.77263    0 1305    6.00000    1.77263  70.5%     -   86s
     0     0    1.77277    0 1312    6.00000    1.77277  70.5%     -   88s
     0     0    1.78129    0 1092    6.00000    1.78129  70.3%     -   92s
     0     0    1.78134    0 1113    6.00000    1.78134  70.3%     -   98s
     0     0    1.78838    0 1134    6.00000    1.78838  70.2%     -  103s
     0     0    1.78851    0 1149    6.00000    1.78851  70.2%     -  110s
     0     0    1.79374    0 1165    6.00000    1.79374  70.1%     -  114s
     0     0    1.79401    0 1204    6.00000    1.79401  70.1%     -  119s
     0     0    1.79804    0 1198    6.00000    1.79804  70.0%     -  124s
     0     0    1.79813    0 1234    6.00000    1.79813  70.0%     -  133s
     0     0    1.80228    0 1142    6.00000    1.80228  70.0%     -  138s
     0     0    1.80244    0 1230    6.00000    1.80244  70.0%     -  141s
     0     0    1.80568    0 1223    6.00000    1.80568  69.9%     -  147s
     0     0    1.80591    0 1123    6.00000    1.80591  69.9%     -  161s
     0     0    1.80878    0 1200    6.00000    1.80878  69.9%     -  165s
     0     0    1.80888    0 1213    6.00000    1.80888  69.9%     -  180s
     0     0    1.81216    0 1270    6.00000    1.81216  69.8%     -  186s
     0     0    1.81235    0 1213    6.00000    1.81235  69.8%     -  197s
     0     0    1.81239    0 1223    6.00000    1.81239  69.8%     -  198s
     0     0    1.81555    0 1162    6.00000    1.81555  69.7%     -  204s
     0     0    1.81569    0 1210    6.00000    1.81569  69.7%     -  216s
     0     0    1.81573    0 1204    6.00000    1.81573  69.7%     -  217s
     0     0    1.81765    0 1049    6.00000    1.81765  69.7%     -  223s
     0     0    1.81778    0 1180    6.00000    1.81778  69.7%     -  275s
     0     0    1.81779    0 1182    6.00000    1.81779  69.7%     -  275s
     0     0    1.81939    0 1141    6.00000    1.81939  69.7%     -  281s
     0     0    1.81948    0 1154    6.00000    1.81948  69.7%     -  289s
     0     0    1.82110    0 1286    6.00000    1.82110  69.6%     -  295s
     0     0    1.82113    0 1273    6.00000    1.82113  69.6%     -  299s
     0     0    1.82256    0 1272    6.00000    1.82256  69.6%     -  304s
     0     0    1.82257    0 1256    6.00000    1.82257  69.6%     -  307s
     0     0    1.82418    0 1266    6.00000    1.82418  69.6%     -  314s
     0     0    1.82432    0 1243    6.00000    1.82432  69.6%     -  318s
     0     0    1.82434    0 1213    6.00000    1.82434  69.6%     -  319s
     0     0    1.82595    0 1235    6.00000    1.82595  69.6%     -  325s
     0     0    1.82598    0 1234    6.00000    1.82598  69.6%     -  344s
     0     0    1.82756    0 1171    6.00000    1.82756  69.5%     -  350s
     0     0    1.82760    0 1158    6.00000    1.82760  69.5%     -  358s
     0     0    1.82869    0 1188    6.00000    1.82869  69.5%     -  363s
     0     0    1.82872    0 1197    6.00000    1.82872  69.5%     -  367s
     0     0    1.82978    0 1206    6.00000    1.82978  69.5%     -  372s
     0     0    1.82978    0 1206    6.00000    1.82978  69.5%     -  373s
     0     2    1.82978    0 1206    6.00000    1.82978  69.5%     - 1144s
     1     4    1.83114    1 1141    6.00000    1.82982  69.5%  2604 1168s
     3     6    1.83368    2 1190    6.00000    1.83116  69.5%  5625 1177s
     5     8    1.83604    3 1075    6.00000    1.83116  69.5%  4218 1183s
     7     8    1.84179    4 1084    6.00000    1.83116  69.5%  3736 1191s
     9    10    1.84325    5 1052    6.00000    1.83116  69.5%  3171 1195s
    11    12    1.84715    6 1065    6.00000    1.83116  69.5%  2908 1201s
    13    14    1.85104    7 1120    6.00000    1.83116  69.5%  2741 1206s
    17    18    1.85980    9 1053    6.00000    1.83116  69.5%  2421 1214s
    19    20    1.86356   10 1018    6.00000    1.83116  69.5%  2277 1217s
    21    22    1.86664   11  904    6.00000    1.83116  69.5%  2167 1221s
    23    24    1.87324   12  953    6.00000    1.83116  69.5%  2109 1225s
    25    26    1.88020   13  956    6.00000    1.83116  69.5%  2057 1230s
    28    29    1.88848   14  921    6.00000    1.83116  69.5%  1964 1410s
    30    31    1.89729   15  912    6.00000    1.83116  69.5%  1922 1415s
    33    34    1.90560   16  847    6.00000    1.83116  69.5%  1845 1420s
    39    40    1.93633   20  725    6.00000    1.83116  69.5%  1698 1425s
    52    53    2.10140   29  716    6.00000    1.83116  69.5%  1473 1600s
    67    68    2.48804   40  564    6.00000    1.83116  69.5%  1269 1608s
    77    78    2.88462   47  415    6.00000    1.83116  69.5%  1162 1613s
    88    89    3.36923   55  342    6.00000    1.83116  69.5%  1066 1616s
   100    98    4.28750   64  175    6.00000    1.83372  69.4%   971 1639s
   112   108    2.58972    3 1664    6.00000    1.83372  69.4%  1011 1644s
   115   111    2.59370    4 1629    6.00000    1.83372  69.4%  1010 1648s
   119   114    2.59901    5 1595    6.00000    1.83372  69.4%  1007 1654s
   123   118    2.60169    6 1580    6.00000    1.83372  69.4%  1002 1659s
   127   122    2.60605    7 1538    6.00000    1.83372  69.4%  1001 1664s
   132   127    2.61038    8 1512    6.00000    1.83372  69.4%   988 1671s
   139   134    2.61809   10 1462    6.00000    1.83372  69.4%   973 1677s
   155   150    2.62357   12 1446    6.00000    1.83372  69.4%   916 1684s
   173   168    2.63236   14 1460    6.00000    1.83372  69.4%   857 1688s
   193   185    2.63858   16 1437    6.00000    1.83372  69.4%   791 1710s
   212   204    2.64665   18 1442    6.00000    1.83372  69.4%   785 1718s
   216   207    2.65464   20 1348    6.00000    1.83372  69.4%   790 1725s
   221   211    2.66407   22 1352    6.00000    1.83372  69.4%   792 1731s
   226   216    2.67785   25 1295    6.00000    1.83372  69.4%   796 1738s
   232   222    2.69484   28 1300    6.00000    1.83372  69.4%   799 1845s
   234   224    2.70058   29 1287    6.00000    1.83372  69.4%   798 1854s
   241   231    2.72274   33 1243    6.00000    1.83372  69.4%   797 1861s
   249   239    2.74637   37 1178    6.00000    1.83372  69.4%   793 1870s
   258   248    2.77604   42 1182    6.00000    1.83372  69.4%   787 1877s
   267   257    2.81160   47 1118    6.00000    1.83372  69.4%   783 1886s
   281   271    2.93844   56  890    6.00000    1.83372  69.4%   772 1906s
   303   293    3.37624   76  668    6.00000    1.83372  69.4%   743 2118s
   305   295    3.41252   77  643    6.00000    1.83372  69.4%   742 2126s
   344   331    4.43164  108  442    6.00000    1.84181  69.3%   686 2147s
   371   358    2.57652    4 1626    6.00000    1.84181  69.3%   688 2165s
   408   386    2.58698    7 1563    6.00000    1.84181  69.3%   657 2185s
   450   426    2.59921   11 1485    6.00000    1.84181  69.3%   632 2196s
   460   433    2.62072   16 1471    6.00000    1.84181  69.3%   636 2206s
   472   445    2.63251   21 1432    6.00000    1.84181  69.3%   636 2219s
   480   453    2.65130   26 1362    6.00000    1.84181  69.3%   637 2229s
   494   467    2.68099   31 1304    6.00000    1.84181  69.3%   637 2240s
   511   484    2.71532   37 1233    6.00000    1.84181  69.3%   635 2254s
   547   515    2.76172   45 1174    6.00000    1.84181  69.3%   625 2265s
   615   581    2.94756   58  897    6.00000    1.84181  69.3%   581 2281s
   678   644     cutoff  120         6.00000    1.85104  69.1%   557 2295s
   691   652    2.58135    8 1510    6.00000    1.85104  69.1%   567 2307s
   709   666    2.59794   13 1438    6.00000    1.85104  69.1%   565 2321s
   735   691    1.98637   25 1206    6.00000    1.85104  69.1%   562 2368s
   737   692    3.84003   94 1692    6.00000    1.85104  69.1%   561 2382s
   738   693    2.79829   44 1277    6.00000    1.85104  69.1%   560 3203s
   739   694    3.63298   86 1211    6.00000    1.85104  69.1%   559 3214s
   740   694    4.08429   98 1314    6.00000    1.85104  69.1%   558 3229s
   741   695    2.88345   57 1148    6.00000    1.85104  69.1%   557 3241s
   742   696    2.61904   15 1157    6.00000    1.85104  69.1%   557 3247s
   743   696    4.66509  117 1135    6.00000    1.85104  69.1%   556 3251s
   744   697    3.06406   62 1146    6.00000    1.85104  69.1%   555 3255s
   745   698    2.71538   45 1123    6.00000    1.85104  69.1%   554 3261s
   746   698    4.08116   98 1216    6.00000    1.85104  69.1%   554 3268s
   747   699    4.51515  113 1278    6.00000    1.85104  69.1%   553 3273s
   748   700    2.77004   46 1209    6.00000    1.85104  69.1%   552 3276s
   749   700    3.79920   93 1190    6.00000    1.85104  69.1%   552 3282s
   750   701    2.61833   17 1202    6.00000    1.85104  69.1%   551 3302s
   751   702    2.58031    6 1191    6.00000    1.85104  69.1%   550 3307s
   752   702    3.37500   70 1191    6.00000    1.85104  69.1%   549 3311s
   753   703    4.43758  108 1191    6.00000    1.85104  69.1%   549 3374s
   754   707    1.85104   12 1292    6.00000    1.85104  69.1%   615 3409s
   756   708    1.85104   13 1269    6.00000    1.85104  69.1%   631 3413s
   758   709    2.52402   13 1655    6.00000    1.85104  69.1%   642 3432s
   760   711    1.85104   14 1195    6.00000    1.85104  69.1%   649 3435s
   762   712    2.50396   14 1666    6.00000    1.85104  69.1%   661 3456s
   764   713    1.85104   15 1219    6.00000    1.85104  69.1%   668 3461s
   766   715    2.56357   15 1547    6.00000    1.85104  69.1%   680 3482s
   768   712    1.85104   16 1128    6.00000    1.85104  69.1%   687 3486s
   770   717    2.56616   16 1547    6.00000    1.85104  69.1%   699 3506s
   772   717    1.85104   17 1070    6.00000    1.85104  69.1%   704 3525s
   776   718    1.85104   18  981    6.00000    1.85104  69.1%   720 3537s
   779   722    2.58024   18 1523    6.00000    1.85104  69.1%   735 3584s
   782   722    1.85104   19  989    6.00000    1.85104  69.1%   742 3594s
   785   724    2.59252   21 1531    6.00000    1.85104  69.1%   746 3600s

Cutting planes:
  Gomory: 4
  MIR: 2
  StrongCG: 4
  Zero half: 117

Explored 786 nodes (661541 simplex iterations) in 3600.04 seconds
Thread count was 4 (of 4 available processors)

Solution count 3: 6 7 8 

Time limit reached
Best objective 6.000000000000e+00, best bound 2.000000000000e+00, gap 66.6667%
